(set-logic QF_S)
(declare-fun var0 () String)
(declare-fun var1 () String)
(declare-fun var2 () String)
(declare-fun var3 () Int)
(declare-fun var4 () String)
(declare-fun var5 () Int)
(declare-fun var6 () Int)
(declare-fun var7 () Int)
(assert (str.prefixof var0 var1))
(assert (str.in.re (str.at var2 var3) (re.* re.allchar)))
(assert (<= (str.indexof var4 var0 var5) (str.len var4)))
(assert (str.prefixof (str.replace (str.substr var2 var6 var7) (str.substr var1 var3 var5) (str.substr var0 var6 var6)) (str.substr (str.at var4 var7) (str.to.int var2) (str.len var4))))
(check-sat)